NAME : local_12
TYPE : ATSP
DIMENSION : 27
EDGE_WEIGHT_TYPE : EXPLICIT
EDGE_WEIGHT_FORMAT : FULL_MATRIX
EDGE_WEIGHT_SECTION
0 679 435 10000000 10000000 10000000 10000000 10000000 10000000 10000000 499 10000000 10000000 10000000 10000000 10000000 10000000 837 697 190 943 585 752 868 10000000 356 870 
0 0 781 964 10000000 10000000 10000000 10000000 10000000 10000000 10000000 893 10000000 10000000 10000000 10000000 10000000 10000000 10000000 733 10000000 10000000 10000000 10000000 856 424 907 
0 781 0 791 10000000 10000000 10000000 10000000 10000000 1033 888 10000000 10000000 10000000 10000000 10000000 10000000 10000000 10000000 253 10000000 463 843 494 723 363 468 
0 964 791 0 999 575 10000000 10000000 10000000 10000000 10000000 995 10000000 10000000 10000000 10000000 10000000 10000000 10000000 993 10000000 10000000 10000000 936 155 830 406 
0 10000000 10000000 974 0 572 10000000 768 10000000 997 10000000 10000000 475 871 605 10000000 995 10000000 10000000 10000000 10000000 10000000 10000000 10000000 969 10000000 10000000 
0 10000000 10000000 575 572 0 10000000 10000000 10000000 10000000 10000000 646 795 10000000 838 10000000 10000000 10000000 10000000 10000000 10000000 10000000 10000000 10000000 564 10000000 873 
0 10000000 10000000 10000000 10000000 10000000 0 739 234 791 10000000 10000000 10000000 10000000 10000000 620 10000000 10000000 10000000 10000000 10000000 984 10000000 879 10000000 10000000 10000000 
0 10000000 10000000 10000000 768 10000000 739 0 757 917 10000000 10000000 10000000 10000000 10000000 785 10000000 10000000 10000000 10000000 10000000 10000000 10000000 10000000 10000000 10000000 10000000 
0 10000000 10000000 10000000 10000000 10000000 234 757 0 567 10000000 10000000 10000000 10000000 10000000 410 10000000 10000000 10000000 10000000 10000000 781 856 763 10000000 10000000 10000000 
0 10000000 1017 10000000 1056 10000000 791 917 567 0 10000000 10000000 868 859 957 187 10000000 913 10000000 935 747 611 373 871 10000000 10000000 10000000 
0 10000000 888 10000000 10000000 10000000 10000000 10000000 10000000 10000000 0 10000000 10000000 1041 10000000 10000000 10000000 407 233 642 565 788 651 10000000 10000000 843 10000000 
0 893 10000000 995 10000000 646 10000000 10000000 10000000 10000000 10000000 0 880 10000000 806 10000000 674 10000000 10000000 10000000 10000000 10000000 10000000 10000000 918 10000000 10000000 
0 10000000 10000000 10000000 475 795 10000000 10000000 10000000 868 10000000 880 0 402 153 957 596 1057 10000000 10000000 843 10000000 985 10000000 10000000 10000000 10000000 
0 10000000 10000000 10000000 871 10000000 10000000 10000000 10000000 859 1080 10000000 402 0 321 10000000 493 695 996 10000000 517 10000000 798 10000000 10000000 10000000 10000000 
0 10000000 10000000 10000000 605 838 10000000 10000000 10000000 957 10000000 806 153 321 0 10000000 444 1040 10000000 10000000 803 10000000 1028 10000000 10000000 10000000 10000000 
0 10000000 10000000 10000000 10000000 10000000 620 785 410 187 10000000 10000000 957 10000000 10000000 0 10000000 10000000 10000000 10000000 931 697 549 869 10000000 10000000 10000000 
0 10000000 10000000 10000000 995 10000000 10000000 10000000 10000000 10000000 10000000 674 596 493 444 10000000 0 1031 10000000 10000000 903 10000000 10000000 10000000 10000000 10000000 10000000 
0 10000000 10000000 10000000 10000000 10000000 10000000 10000000 10000000 913 407 10000000 1070 693 1023 10000000 1029 0 279 906 217 948 599 10000000 10000000 10000000 10000000 
0 10000000 10000000 10000000 10000000 10000000 10000000 10000000 10000000 10000000 233 10000000 10000000 1029 10000000 10000000 10000000 279 0 847 489 980 738 10000000 10000000 10000000 10000000 
0 733 253 993 10000000 10000000 10000000 10000000 10000000 935 642 10000000 10000000 10000000 10000000 10000000 10000000 903 847 0 979 453 729 681 909 329 709 
0 10000000 10000000 10000000 10000000 10000000 10000000 10000000 10000000 747 565 10000000 843 517 803 931 979 217 489 990 0 904 492 10000000 10000000 10000000 10000000 
0 10000000 463 10000000 10000000 10000000 984 10000000 781 611 788 10000000 10000000 10000000 10000000 697 10000000 948 980 453 904 0 498 464 10000000 760 838 
0 10000000 843 10000000 10000000 10000000 10000000 10000000 856 373 651 10000000 998 798 1067 549 10000000 599 738 729 492 498 0 916 10000000 10000000 10000000 
0 10000000 494 936 10000000 10000000 879 10000000 763 871 10000000 10000000 10000000 10000000 10000000 950 10000000 10000000 10000000 681 10000000 464 916 0 924 852 571 
0 856 723 155 999 564 10000000 10000000 10000000 10000000 10000000 918 10000000 10000000 10000000 10000000 10000000 10000000 10000000 909 10000000 10000000 10000000 924 0 730 386 
0 424 363 830 10000000 10000000 10000000 10000000 10000000 10000000 843 10000000 10000000 10000000 10000000 10000000 10000000 10000000 10000000 329 10000000 760 10000000 852 730 0 630 
0 10000000 10000000 10000000 10000000 10000000 10000000 10000000 10000000 10000000 10000000 10000000 10000000 10000000 10000000 10000000 10000000 10000000 10000000 10000000 10000000 10000000 10000000 10000000 10000000 10000000 0 
EOF